units		lj
dimension	3
atom_style	atomic

boundary	p p p
region		box block 0 40 0 40 0 40
create_box	1 box
create_atoms	1 random 64000 123456789 box
mass		1 1.0


#pair_style	lj/cut 1.57079632675 #pi/2
pair_style	soft 1.57079632675 #pi/2
#pair_coeff	1 1 1.0 1.0 1.57079632675
pair_coeff	1 1 0.5 1.57079632675
#pair_modify	shift yes

#neighbor	0.0 bin
#neigh_modify	delay 0 every 1 check no binsize 1.57

timestep	0.0001
fix		1 all nve

compute		1 all pe/atom

dump		1 all custom 4000 out.dump x y z vx vy vz c_1
thermo		40
run		4000



