units		metal
dimension	3
atom_style	atomic

boundary	p p p
lattice		fcc 3.68
region		box block 0 10 0 10 0 10
create_box	1 box
#create_atoms	1 region box #random 64000 123456789 box

read_dump	model.dump 0 x y z scaled yes add yes 

mass		1 63.546


pair_style	morse 6.0
pair_coeff	1 1 0.3429 1.359 2.866 #D0 alpha R0
#pair_modify	shift yes

#neighbor	0.0 bin
neigh_modify	delay 0 every 1 check yes

timestep	0.0001
fix		1 all nve

compute		1 all pe/atom
compute		2 all ke/atom

dump		1 all custom 4000 out.dump x y z c_1 c_2
thermo		40

#minimize 	1e-15 1e-15 5000 5000

run		4000




